Al  H                                   
    1.000000000000000     
     5.7275649276110352    0.0000000000000000    0.0000000000000000
     2.8637824638055176    4.9602167291359347    0.0000000000000000
     0.0000000000000000    0.0000000000000000   24.6765371804359681
   Al   H 
    12     1
Selective dynamics
Direct
  0.1666666666666643  0.1666666666666643  0.4052432449042414   F   F   F
  0.6666666666666643  0.1666666666666643  0.4052432449042414   F   F   F
  0.1666666666666643  0.6666666666666643  0.4052432449042414   F   F   F
  0.6666666666666643  0.6666666666666643  0.4052432449042414   F   F   F
  0.8333333333333357  0.3333333333333357  0.5000000000000000   F   F   F
  0.3333333333333357  0.3333333333333357  0.5000000000000000   F   F   F
  0.8333333333333357  0.8333333333333357  0.5000000000000000   F   F   F
  0.3333333333333357  0.8333333333333357  0.5000000000000000   F   F   F
  0.0000000000000000  0.0000000000000000  0.5947567550957586   F   F   F
  0.5000000000000000  0.0000000000000000  0.5947567550957586   F   F   F
  0.0000000000000000  0.5000000000000000  0.5947567550957586   F   F   F
  0.5000000000000000  0.5000000000000000  0.5947567550957586   F   F   F
  0.1666666666666643  0.1666666666666643  0.6323033397908014   T   T   T
 
  0.00000000E+00  0.00000000E+00  0.00000000E+00
  0.00000000E+00  0.00000000E+00  0.00000000E+00
  0.00000000E+00  0.00000000E+00  0.00000000E+00
  0.00000000E+00  0.00000000E+00  0.00000000E+00
  0.00000000E+00  0.00000000E+00  0.00000000E+00
  0.00000000E+00  0.00000000E+00  0.00000000E+00
  0.00000000E+00  0.00000000E+00  0.00000000E+00
  0.00000000E+00  0.00000000E+00  0.00000000E+00
  0.00000000E+00  0.00000000E+00  0.00000000E+00
  0.00000000E+00  0.00000000E+00  0.00000000E+00
  0.00000000E+00  0.00000000E+00  0.00000000E+00
  0.00000000E+00  0.00000000E+00  0.00000000E+00
  0.00000000E+00  0.00000000E+00  0.00000000E+00
