# INCAR generated by vasp-ase
EDIFFG = -0.05
ENCUT = 300
GGA = PE
IBRION = 2
IDIPOL = 3
ISMEAR = 1
LCHARG = .FALSE.
LDIPOL = .TRUE.
LWAVE = .FALSE.
NSW = 20
SIGMA = 0.1
