Al  H 
 1.0000000000000000
     5.7275649276110352    0.0000000000000000    0.0000000000000000
     2.8637824638055176    4.9602167291359347    0.0000000000000000
     0.0000000000000000    0.0000000000000000   24.6765371804359681
 Al  H  
  12   1
Selective dynamics
Cartesian
  1.4318912319027588  0.8267027881893224 10.0000000000000000   F   F   F
  4.2956736957082766  0.8267027881893224 10.0000000000000000   F   F   F
  2.8637824638055176  3.3068111527572897 10.0000000000000000   F   F   F
  5.7275649276110352  3.3068111527572897 10.0000000000000000   F   F   F
  0.0000000000000000  1.6534055763786448 12.3382685902179841   F   F   F
  2.8637824638055176  1.6534055763786448 12.3382685902179841   F   F   F
  1.4318912319027586  4.1335139409466120 12.3382685902179841   F   F   F
  4.2956736957082757  4.1335139409466120 12.3382685902179841   F   F   F
  0.0000000000000000  0.0000000000000000 14.6765371804359681   F   F   F
  2.8637824638055176  0.0000000000000000 14.6765371804359681   F   F   F
  1.4318912319027588  2.4801083645679673 14.6765371804359681   F   F   F
  4.2956736957082766  2.4801083645679673 14.6765371804359681   F   F   F
  1.4318912319027588  0.8267027881893224 16.1765371804359681   T   T   T
